25 2
25 1000
20
30
10
40
20
20
20
10
20
30
40
20
10
10
20
20
20
20
40
10
10
40
30
10
20
40 50 0 960 0 0
25 85 431 911 10 2
22 75 30 510 10 3
22 85 291 771 10 1
20 80 674 734 10 1
20 85 40 520 10 1
18 75 393 502 10 1
15 75 120 600 10 3
15 80 397 457 10 3
10 35 401 461 10 1
10 40 535 622 10 1
8 40 225 285 10 2
8 45 43 523 10 1
5 35 683 743 10 1
5 45 35 366 10 2
2 40 204 264 10 3
0 40 204 425 10 3
0 45 698 827 10 2
44 5 306 483 10 1
42 10 199 428 10 2
42 15 494 699 10 1
40 5 45 525 10 3
40 15 383 486 10 1
38 5 231 291 10 2
38 15 609 872 10 1
35 5 821 881 10 2
6 50 0 960 5 4
33 38 0 960 5 4
1 0
1 0
0 0
0 0
0 0
0 0
1 0
1 0
0 0
0 0
1 0
0 0
0 0
1 0
1 0
1 0
1 0
0 0
0 1
0 0
0 1
0 0
0 1
0 0
0 1
